693
2
68, 15, 48, 19, 69, 27, 92, 71, 30, 56, 71, 50, 70, 50, 81, 87, 1, 45, 37, 100, 20, 49, 56, 1, 2, 19, 17
6, 86, 5, 21, 87, 57, 5, 24, 42, 90, 58, 75, 69, 63, 47, 98, 44, 73, 89, 44, 33, 33, 62, 36, 5, 19, 49
2, 1, 1, 2, 2, 2, 2, 1, 1, 2, 1, 2, 1, 2, 1, 2, 2, 1, 2, 1, 2, 1, 2, 2, 1, 1, 1